NAME : a280
COMMENT : Algorithm Random(+2opt)
COMMENT : Length 2774 
COMMENT : Elapsed time 0.022929 seconds
COMMENT : 2-opt iterations 1368
TYPE : TOUR
DIMENSION : 280
TOUR_SECTION
132
133
17
18
19
20
21
128
127
126
29
28
27
26
22
25
23
24
14
13
15
16
271
272
273
274
275
9
12
11
10
8
7
6
5
276
277
4
278
279
3
280
1
2
242
243
244
241
240
245
246
231
239
238
237
232
233
236
235
234
228
229
230
251
250
247
248
249
256
255
252
209
210
211
214
215
216
217
220
219
218
227
226
225
224
223
222
221
203
204
205
213
212
207
206
208
253
254
257
258
259
260
261
262
263
264
265
140
141
142
143
144
200
202
201
196
195
194
192
191
190
189
188
187
186
185
184
183
182
181
160
175
161
162
163
164
165
166
167
168
170
171
172
173
174
107
106
105
104
103
102
169
101
100
99
98
97
96
95
94
93
92
91
90
89
109
108
110
112
111
114
113
116
115
117
118
61
60
43
42
41
40
46
45
44
59
62
63
64
66
65
86
85
84
87
88
83
82
81
80
79
78
77
75
76
74
73
72
71
70
67
69
68
58
57
56
55
54
47
53
52
51
50
49
48
39
38
37
36
35
34
33
32
31
30
125
124
123
122
121
120
119
157
158
159
177
176
180
179
193
197
198
199
145
146
147
148
266
267
268
269
270
134
135
136
137
138
139
149
150
178
151
152
156
153
155
154
129
130
131
132
EOF
